67005.0
1787
2 3 4 5 6 7 8 13 14 15 16 17 18 21 22 23 25 30 31 32 34 35 36 37 38 39 40 41 43 46 47 48 49 51 53 54 55 56 57 58 59 61 62 65 66 68 69 70 72 73 75 76 77 80 82 86 87 90 91 93 94 95 96 97 99 